Max time = 14400.0
Tried aggregator 2 times.
MIP Presolve eliminated 4367 rows and 20 columns.
MIP Presolve modified 182 coefficients.
Aggregator did 44 substitutions.
Reduced MIP has 1866 rows, 14374 columns, and 95672 nonzeros.
Reduced MIP has 14350 binaries, 24 generals, 0 SOSs, and 0 indicators.
Presolve time = 0.37 sec. (90.65 ticks)
Tried aggregator 1 time.
Reduced MIP has 1866 rows, 14374 columns, and 95672 nonzeros.
Reduced MIP has 14350 binaries, 24 generals, 0 SOSs, and 0 indicators.
Presolve time = 0.17 sec. (41.37 ticks)
Probing time = 0.22 sec. (6.40 ticks)
Clique table members: 18699.
MIP emphasis: balance optimality and feasibility.
MIP search method: dynamic search.
Parallel mode: deterministic, using up to 4 threads.
Root relaxation solution time = 3.52 sec. (761.28 ticks)

        Nodes                                         Cuts/
   Node  Left     Objective  IInf  Best Integer    Best Bound    ItCnt     Gap

      0     0       20.0000  1690                     20.0000        0         
      0     2       20.0000   656                     20.0000        0         
Elapsed time = 143.30 sec. (18971.42 ticks, tree = 0.01 MB, solutions = 0)
      1     3       20.0000  1095                     20.0000    14991         
      2     3       20.0000  1232                     20.0000    15773         
      3     4       20.0000  1252                     20.0000    23728         
      4     4       20.0000  1288                     20.0000    24483         
      5     5       20.0000  1255                     20.0000    40869         
      6     5       20.0000  1312                     20.0000    40525         
      7     6       20.0000  1230                     20.0000    47469         
      8     7       20.0000  1418                     20.0000    56870         
      9    11       20.0000  1537                     20.0000    85374         
     10     8       20.0000  1407                     20.0000    68793         
Elapsed time = 272.11 sec. (42128.76 ticks, tree = 0.02 MB, solutions = 0)
     12    13       20.0000  1636                     20.0000    97817         
     15    14       20.0000  1671                     20.0000   106768         
     18    11       20.0000  1536                     20.0000    86360         
     23    16       20.0000  1451                     20.0000   109991         
     25    14       20.0000  1567                     20.0000   101843         
     28    17       20.0000  1570                     20.0000   129068         
     32    17       20.0000  1584                     20.0000   120879         
     35    27       20.0000  1548                     20.0000   147910         
     39    34       20.0000  1516                     20.0000   160679         
     42    30       20.0000  1589                     20.0000   153887         
Elapsed time = 352.39 sec. (54776.13 ticks, tree = 0.08 MB, solutions = 0)
     46    38       20.0000  1397                     20.0000   168742         
     49    37       20.0000  1434                     20.0000   171661         
     53    45       20.0000  1199                     20.0000   188122         
     55    46       20.0000  1152                     20.0000   192607         
     58    47       20.0000  1295                     20.0000   196349         
     60    49       20.0000  1212                     20.0000   201066         
     62    49    infeasible                           20.0000   207305         
     64    51       20.0000  1112                     20.0000   212336         
     66    51    infeasible                           20.0000   217912         
     72    53    infeasible                           20.0000   223825         
Elapsed time = 449.67 sec. (71960.35 ticks, tree = 0.25 MB, solutions = 0)
     77    63       20.0000  1003                     20.0000   256510         
     80    55       20.0000  1486                     20.0000   216581         
     86    64       20.0000   932                     20.0000   263353         
     91    65       20.0000   897                     20.0000   269054         
     98    65    infeasible                           20.0000   275540         
    102    75       20.0000  1476                     20.0000   281254         
    105    72       20.0000  1331                     20.0000   276649         
    109    81       20.0666   850                     20.0000   321938         
    115    85       20.0000  1317                     20.0000   341484         
    121    81       20.0798   838                     20.0000   329807         
Elapsed time = 518.59 sec. (83395.85 ticks, tree = 0.44 MB, solutions = 0)
    129    92       20.0000  1563                     20.0000   352082         
    135    98       20.6667   776                     20.0000   414717         
    142    91       20.0000  1116                     20.0000   359177         
    149    97    infeasible                           20.0000   433445         
    156    99    infeasible                           20.0000   438605         
    161   101       20.0000  1183                     20.0000   443859         
    169   107    infeasible                           20.0000   480818         
    176   107       20.0000  1264                     20.0000   436091         
    187   110       22.0000   780                     20.0000   494416         
    195   116    infeasible                           20.0000   529770         
Elapsed time = 576.80 sec. (94327.07 ticks, tree = 0.41 MB, solutions = 0)
    202   109       20.0000  1579                     20.0000   506601         
    210   119       20.0000   887                     20.0000   538102         
    216   117       20.0000  1079                     20.0000   458901         
    220   120       20.0000  1202                     20.0000   546140         
    226   122       20.0000  1158                     20.0000   548764         
    233   130       20.0000   983                     20.0000   565735         
    242   139       20.0000  1411                     20.0000   601548         
    254   147       20.0000  1005                     20.0000   629437         
    264   149       20.0000   948                     20.0000   633414         
    272   157    infeasible                           20.0000   663468         
Elapsed time = 640.10 sec. (104528.86 ticks, tree = 0.85 MB, solutions = 0)
    279   157    infeasible                           20.0000   667656         
    286   168       20.0000  1157                     20.0000   675697         
    297   158    infeasible                           20.0000   677095         
    308   154    infeasible                           20.0000   646320         
    318   186    infeasible                           20.0000   730780         
    324   188       20.4286   893                     20.0000   735307         
    333   174    infeasible                           20.0000   693228         
    351   196       20.1290   922                     20.0000   762313         
    364   175       20.0000   879                     20.0000   702215         
    380   186    infeasible                           20.0000   726794         
Elapsed time = 701.70 sec. (114674.74 ticks, tree = 1.39 MB, solutions = 0)
    392   205       20.4444   865                     20.0000   779645         
    397   196       20.5806   737                     20.0000   768296         
    408   222       20.9091   858                     20.0000   836496         
    426   223    infeasible                           20.0000   862196         
    435   223    infeasible                           20.0000   870102         
    439   228    infeasible                           20.0000   846624         
    447   228    infeasible                           20.0000   853641         
    458   230       22.0000   680                     20.0000   890697         
    474   230    infeasible                           20.0000   866980         
    490   224    infeasible                           20.0000   868203         
Elapsed time = 767.06 sec. (126409.19 ticks, tree = 1.78 MB, solutions = 0)
    508   239       20.0000  1003                     20.0000   914634         
    522   242       20.0000   989                     20.0000   920502         
    528   245       20.0000  1306                     20.0000   922378         
    539   247       20.0000   893                     20.0000   932473         
    545   235       20.0000   792                     20.0000   899810         
    551   235    infeasible                           20.0000   905943         
    554   252       20.0075   931                     20.0000   949921         
    560   239       20.5263   784                     20.0000   920696         
    569   242       20.2632   780                     20.0000   928908         
    577   284       20.0000  1038                     20.0000  1020569         
Elapsed time = 824.26 sec. (137075.19 ticks, tree = 2.39 MB, solutions = 0)
    587   298       20.6667   756                     20.0000  1093379         
    598   316       20.5437   996                     20.0000  1144393         
    610   317    infeasible                           20.0000  1149938         
    623   290       20.0000   922                     20.0000  1040347         
    637   323       21.1429   915                     20.0000  1162497         
    650   319       20.0000  1289                     20.0000  1139464         
    663   333    infeasible                           20.0000  1185584         
    673   323       20.0000  1239                     20.0000  1148277         
    684   326       20.0000  1242                     20.0000  1152154         
    728   332       20.0000  1090                     20.0000  1169762         
Elapsed time = 891.81 sec. (150372.50 ticks, tree = 3.15 MB, solutions = 0)
    764   376    infeasible                           20.0000  1367226         
    825   448    infeasible                           20.0000  1581364         
    886   455       21.0000   731                     20.0000  1606029         
*   940+  522                           24.0000       20.0000            16.67%
    964   498       24.0000   524       24.0000       20.0000  1736022   16.67%
   1061   491       22.2941   806       24.0000       20.0000  1883096   16.67%
   1109   501       20.0000  1324       24.0000       20.0000  1894605   16.67%
   1144   584       20.0000  1274       24.0000       20.0000  1993281   16.67%
   1215   599       22.0000   727       24.0000       20.0000  2029566   16.67%
   1275   614       20.0000  1053       24.0000       20.0000  2048926   16.67%
   1326   691       20.0625  1116       24.0000       20.0000  2111909   16.67%
Elapsed time = 1104.83 sec. (189036.84 ticks, tree = 6.81 MB, solutions = 2)
   1394   774       20.3333   997       24.0000       20.0000  2249129   16.67%
   1469   780       20.0000  1112       24.0000       20.0000  2236280   16.67%
   1518   822       20.3750   944       24.0000       20.0000  2308475   16.67%
   1562   907    infeasible             24.0000       20.0000  2448909   16.67%
   1581   889       20.0000   993       24.0000       20.0000  2429887   16.67%
   1614   951       20.0084  1071       24.0000       20.0000  2510024   16.67%
   1659   956       20.0714  1145       24.0000       20.0000  2516730   16.67%
   1693   974       20.0000  1207       24.0000       20.0000  2560690   16.67%
   1721  1011       20.7679  1107       24.0000       20.0000  2607661   16.67%
   1766  1033       21.0000  1069       24.0000       20.0000  2626482   16.67%
Elapsed time = 1314.78 sec. (227564.88 ticks, tree = 10.06 MB, solutions = 2)
   1815  1109       21.3333  1008       24.0000       20.0000  2748962   16.67%
   1842  1132       20.0000  1225       24.0000       20.0000  2798136   16.67%
   1883  1151       20.0000  1224       24.0000       20.0000  2813238   16.67%
   1913  1179       20.2807  1152       24.0000       20.0000  2849582   16.67%
   1952  1210       20.1053  1246       24.0000       20.0000  2883787   16.67%
   1999  1246       22.6667   846       24.0000       20.0000  2941042   16.67%
   2060  1277       20.0000  1176       24.0000       20.0000  3008224   16.67%
   2105  1293       20.0000  1158       24.0000       20.0000  3022706   16.67%
   2141  1350       20.0714  1098       24.0000       20.0000  3107817   16.67%
   2198  1383       20.0000   929       24.0000       20.0000  3195348   16.67%
Elapsed time = 1525.85 sec. (266029.42 ticks, tree = 13.09 MB, solutions = 2)
   2238  1392       20.1597   871       24.0000       20.0000  3220537   16.67%
   2306  1455       22.0000   881       24.0000       20.0000  3294347   16.67%
   2370  1505       20.0000  1188       24.0000       20.0000  3384136   16.67%
   2424  1542       20.0000  1261       24.0000       20.0000  3446077   16.67%
   2453  1607       20.0000  1123       24.0000       20.0000  3542169   16.67%
   2472  1635       20.1053  1235       24.0000       20.0000  3587747   16.67%
   2500  1645       20.1053  1208       24.0000       20.0000  3602935   16.67%
   2548  1661       20.1053  1200       24.0000       20.0000  3621423   16.67%
   2577  1679    infeasible             24.0000       20.0000  3690803   16.67%
   2609  1727       22.0000   768       24.0000       20.0000  3788867   16.67%
Elapsed time = 1732.27 sec. (304843.25 ticks, tree = 17.22 MB, solutions = 2)
   2627  1773       20.0000   710       24.0000       20.0000  3894332   16.67%
   2628  1773       20.0000  1148       24.0000       20.0000  3908209   16.67%
   2630  1773       20.0000  1399       24.0000       20.0000  3917592   16.67%
   2635   987       20.0000  1286       24.0000       20.0000  3933167   16.67%
   2642   351       20.0000  1376       24.0000       20.0000  3970790   16.67%
   2647   256       20.0000  1354       24.0000       20.0000  3996560   16.67%
   2651   239       20.0000  1419       24.0000       20.0000  4034163   16.67%
   2655   231       20.0000  1308       24.0000       20.0000  4068548   16.67%
   2664   202       20.0000  1438       24.0000       20.0000  4071770   16.67%
   2670   192       20.0000  1359       24.0000       20.0000  4100327   16.67%
Elapsed time = 2208.19 sec. (386182.01 ticks, tree = 1.78 MB, solutions = 2)
   2681   115       20.0000  1675       24.0000       20.0000  4137107   16.67%
   2692    87       20.0000  1536       24.0000       20.0000  4142978   16.67%
   2711    73       20.0000  1304       24.0000       20.0000  4157077   16.67%
   2725    78       20.0000   823       24.0000       20.0000  4194819   16.67%
   2736    92       20.0000   777       24.0000       20.0000  4235030   16.67%
*  2747+   74                           20.0000       20.0000             0.00%
   2747    45       20.0000  1463       20.0000       20.0000  4120044    0.00%
   2748    66       20.0000  1303       20.0000       20.0000  4160198    0.00%

Root node processing (before b&c):
  Real time             =  143.06 sec. (18929.04 ticks)
Parallel b&c, 4 threads:
  Real time             = 2233.83 sec. (399036.71 ticks)
  Sync time (average)   =  128.56 sec.
  Wait time (average)   =    0.02 sec.
                          ------------
Total (root+branch&cut) = 2376.90 sec. (417965.75 ticks)
P#1 = 1.0
P#18 = 1.0
P#25 = 1.0
P#31 = 1.0
P#36 = 1.0
P#40 = 1.0
P#43 = 1.0
P#47 = 1.0
P#74 = 1.0
P#91 = 1.0
P#92 = 1.0
P#109 = 1.0
P#136 = 1.0
P#140 = 1.0
P#143 = 1.0
P#147 = 1.0
P#152 = 1.0
P#158 = 1.0
P#165 = 1.0
P#182 = 1.0
P#137 = 1.0
P#46 = 1.0
X#1#25 = 1.0
X#2#1 = 1.0
X#3#43 = 1.0
X#4#31 = 1.0
X#5#165 = 1.0
X#6#18 = 1.0
X#7#140 = 1.0
X#8#158 = 1.0
X#9#40 = 1.0
X#10#91 = 1.0
X#11#182 = 1.0
X#12#92 = 1.0
X#13#46 = 1.0
X#14#152 = 1.0
X#15#47 = 1.0
X#16#74 = 1.0
X#17#143 = 1.0
X#18#36 = 1.0
X#19#147 = 1.0
X#20#109 = 1.0
X#21#137 = 1.0
X#22#136 = 0.9999999999999958
L#1#2 = 1.0
L#1#4 = 1.0
L#1#6 = 1.0
L#1#8 = 1.0
L#1#11 = 1.0
L#1#13 = 1.0
L#1#15 = 1.0
L#1#17 = 1.0
L#1#19 = 1.0
L#1#21 = 1.0
L#2#2 = 1.0
L#2#5 = 1.0
L#2#7 = 1.0
L#2#9 = 1.0
L#2#11 = 1.0
L#2#13 = 1.0
L#2#15 = 1.0
L#2#17 = 1.0
L#2#19 = 1.0
L#2#21 = 1.0
L#3#2 = 1.0
L#3#4 = 1.0
L#3#6 = 1.0
L#3#8 = 1.0
L#3#10 = 1.0
L#3#12 = 1.0
L#3#14 = 1.0
L#3#16 = 1.0
L#3#19 = 1.0
L#3#21 = 1.0
L#4#2 = 1.0
L#4#4 = 1.0
L#4#6 = 1.0
L#4#8 = 1.0
L#4#10 = 1.0
L#4#13 = 1.0
L#4#15 = 1.0
L#4#17 = 1.0
L#4#19 = 1.0
L#4#21 = 1.0
L#5#1 = 1.0
L#5#3 = 1.0
L#5#5 = 1.0
L#5#7 = 1.0
L#5#8 = 1.0
L#5#10 = 1.0
L#5#12 = 1.0
L#5#14 = 1.0
L#5#16 = 1.0
L#5#18 = 1.0
L#5#20 = 1.0
L#6#2 = 1.0
L#6#4 = 1.0
L#6#6 = 1.0
L#6#9 = 1.0
L#6#11 = 1.0
L#6#13 = 1.0
L#6#15 = 1.0
L#6#17 = 1.0
L#6#19 = 1.0
L#6#21 = 1.0
L#7#1 = 1.0
L#7#3 = 1.0
L#7#5 = 1.0
L#7#7 = 1.0
L#7#9 = 1.0
L#7#11 = 1.0
L#7#13 = 1.0
L#7#15 = 1.0
L#7#17 = 1.0
L#7#18 = 1.0
L#7#20 = 1.0
L#8#1 = 1.0
L#8#3 = 1.0
L#8#5 = 1.0
L#8#7 = 1.0
L#8#9 = 1.0
L#8#10 = 1.0
L#8#12 = 1.0
L#8#14 = 1.0
L#8#16 = 1.0
L#8#18 = 1.0
L#8#20 = 1.0
L#9#2 = 1.0
L#9#4 = 1.0
L#9#6 = 1.0
L#9#8 = 1.0
L#9#10 = 1.0
L#9#12 = 1.0
L#9#14 = 1.0
L#9#17 = 1.0
L#9#19 = 1.0
L#9#21 = 1.0
L#10#2 = 1.0
L#10#3 = 1.0
L#10#5 = 1.0
L#10#7 = 1.0
L#10#9 = 1.0
L#10#11 = 1.0
L#10#13 = 1.0
L#10#15 = 1.0
L#10#17 = 1.0
L#10#19 = 1.0
L#10#21 = 1.0
L#11#1 = 1.0
L#11#3 = 1.0
L#11#4 = 1.0
L#11#6 = 1.0
L#11#8 = 1.0
L#11#10 = 1.0
L#11#12 = 1.0
L#11#14 = 1.0
L#11#16 = 1.0
L#11#18 = 1.0
L#11#20 = 1.0
L#12#1 = 1.0
L#12#4 = 1.0
L#12#6 = 1.0
L#12#8 = 1.0
L#12#10 = 1.0
L#12#12 = 1.0
L#12#14 = 1.0
L#12#16 = 1.0
L#12#18 = 1.0
L#12#20 = 1.0
L#13#2 = 1.0
L#13#4 = 1.0
L#13#6 = 1.0
L#13#8 = 1.0
L#13#10 = 1.0
L#13#12 = 1.0
L#13#14 = 1.0
L#13#16 = 1.0
L#13#18 = 1.0
L#13#20 = 1.0
L#14#1 = 1.0
L#14#3 = 1.0
L#14#5 = 1.0
L#14#7 = 1.0
L#14#9 = 1.0
L#14#11 = 1.0
L#14#12 = 1.0
L#14#14 = 1.0
L#14#16 = 1.0
L#14#18 = 1.0
L#14#20 = 1.0
L#15#2 = 1.0
L#15#4 = 1.0
L#15#6 = 1.0
L#15#8 = 1.0
L#15#10 = 1.0
L#15#12 = 1.0
L#15#14 = 1.0
L#15#16 = 1.0
L#15#18 = 1.0
L#15#19 = 1.0
L#15#21 = 1.0
L#16#2 = 1.0
L#16#4 = 1.0
L#16#6 = 1.0
L#16#7 = 1.0
L#16#9 = 1.0
L#16#11 = 1.0
L#16#13 = 1.0
L#16#15 = 1.0
L#16#17 = 1.0
L#16#19 = 1.0
L#16#21 = 1.0
L#17#1 = 1.0
L#17#3 = 1.0
L#17#5 = 1.0
L#17#7 = 1.0
L#17#9 = 1.0
L#17#11 = 1.0
L#17#13 = 1.0
L#17#15 = 1.0
L#17#16 = 1.0
L#17#18 = 1.0
L#17#20 = 1.0
L#18#2 = 1.0
L#18#4 = 1.0
L#18#6 = 1.0
L#18#8 = 1.0
L#18#10 = 1.0
L#18#12 = 1.0
L#18#15 = 1.0
L#18#17 = 1.0
L#18#19 = 1.0
L#18#21 = 1.0
L#19#1 = 1.0
L#19#3 = 1.0
L#19#5 = 1.0
L#19#7 = 1.0
L#19#9 = 1.0
L#19#11 = 1.0
L#19#13 = 1.0
L#19#14 = 1.0
L#19#16 = 1.0
L#19#18 = 1.0
L#19#20 = 1.0
L#20#1 = 1.0
L#20#3 = 1.0
L#20#5 = 1.0
L#20#8 = 1.0
L#20#10 = 1.0
L#20#12 = 1.0
L#20#14 = 1.0
L#20#16 = 1.0
L#20#18 = 1.0
L#20#20 = 1.0
L#21#1 = 1.0
L#21#3 = 1.0
L#21#5 = 1.0
L#21#7 = 1.0
L#21#9 = 1.0
L#21#11 = 1.0
L#21#13 = 1.0
L#21#15 = 1.0
L#21#17 = 1.0
L#21#19 = 1.0
L#21#21 = 1.0
L#22#1 = 1.0
L#22#3 = 0.9999999999999958
L#22#5 = 1.0
L#22#7 = 0.9999999999999958
L#22#9 = 1.0
L#22#11 = 1.000000000000001
L#22#13 = 1.000000000000001
L#22#15 = 1.0
L#22#17 = 1.0
L#22#20 = 1.0
F#2#1#7 = 1.0
F#1#3#15 = 1.0
F#1#4#11 = 1.0
F#5#1#18 = 1.0
F#1#6#8 = 1.0
F#7#1#1 = 1.0
F#1#8#19 = 1.0
F#9#1#12 = 1.0
F#1#10#6 = 1.0
F#11#1#14 = 1.0
F#12#1#16 = 1.0
F#1#13#17 = 1.0
F#1#14#2 = 1.0
F#1#15#13 = 1.0
F#16#1#9 = 1.0
F#17#1#3 = 1.0
F#18#1#10 = 1.0
F#19#1#20 = 1.0
F#1#20#21 = 1.0
F#1#21#4 = 1.0
F#22#1#5 = 1.0
F#3#2#12 = 1.0
F#2#4#5 = 1.0
F#5#2#16 = 1.0
F#6#2#4 = 1.0
F#2#7#21 = 1.0
F#2#8#17 = 1.0
F#9#2#8 = 1.0
F#10#2#3 = 1.0
F#2#11#13 = 1.0
F#12#2#10 = 1.0
F#2#13#15 = 1.0
F#2#14#19 = 1.0
F#2#15#9 = 1.0
F#16#2#6 = 1.0
F#17#2#20 = 1.0
F#2#18#11 = 1.0
F#19#2#18 = 1.0
F#20#2#14 = 1.0
F#2#21#2 = 1.0
F#22#2#1 = 1.0
F#4#3#13 = 1.0
F#3#5#2 = 1.0
F#3#6#14 = 1.0
F#7#3#3 = 1.0
F#8#3#5 = 1.0
F#9#3#17 = 1.0
F#3#10#10 = 1.0
F#3#11#19 = 1.0
F#12#3#20 = 1.0
F#3#13#21 = 1.0
F#3#14#4 = 1.0
F#15#3#18 = 1.0
F#16#3#11 = 1.0
F#17#3#7 = 1.0
F#3#18#16 = 1.0
F#3#19#6 = 1.0
F#20#3#1 = 1.0
F#3#21#8 = 1.0
F#22#3#9 = 1.0
F#5#4#20 = 1.0
F#4#6#10 = 1.0
F#4#7#4 = 1.0
F#8#4#18 = 1.0
F#4#9#15 = 1.0
F#10#4#7 = 1.0
F#4#11#21 = 1.0
F#4#12#17 = 1.0
F#13#4#16 = 1.0
F#14#4#1 = 1.0
F#15#4#14 = 1.0
F#4#16#8 = 1.0
F#4#17#2 = 1.0
F#18#4#12 = 1.0
F#19#4#3 = 1.0
F#4#20#19 = 1.0
F#21#4#9 = 1.0
F#4#22#6 = 1.0
F#5#6#1 = 1.0
F#7#5#11 = 1.0
F#8#5#9 = 1.0
F#9#5#19 = 1.0
F#5#10#14 = 1.0
F#11#5#6 = 1.0
F#5#12#5 = 1.0
F#5#13#3 = 1.0
F#5#14#10 = 1.0
F#15#5#4 = 1.0
F#16#5#15 = 1.0
F#17#5#13 = 1.0
F#18#5#21 = 1.0
F#5#19#8 = 1.0
F#5#20#7 = 1.0
F#21#5#17 = 1.0
F#5#22#12 = 1.0
F#6#7#6 = 1.0
F#8#6#20 = 1.0
F#6#9#13 = 1.0
F#10#6#5 = 1.0
F#6#11#17 = 0.999999999999988
F#6#12#15 = 1.0
F#13#6#12 = 0.999999999999988
F#14#6#18 = 1.0
F#6#15#11 = 0.999999999999988
F#16#6#7 = 1.0
F#6#17#21 = 1.0
F#6#18#9 = 1.0
F#6#19#19 = 1.0
F#20#6#16 = 1.0
F#21#6#3 = 1.0
F#6#22#2 = 1.0
F#7#8#15 = 1.0
F#7#9#7 = 1.0
F#10#7#2 = 1.0
F#7#11#9 = 1.0
F#12#7#12 = 1.0
F#13#7#10 = 1.0
F#7#14#17 = 1.0
F#15#7#8 = 1.0
F#7#16#20 = 1.0
F#17#7#16 = 1.0
F#7#18#5 = 1.0
F#19#7#14 = 1.0
F#7#20#13 = 1.0
F#21#7#19 = 1.0
F#7#22#18 = 1.0
F#9#8#21 = 1.0
F#8#10#16 = 1.0
F#11#8#4 = 1.0
F#12#8#6 = 1.0
F#8#13#7 = 1.0
F#14#8#11 = 1.0
F#8#15#1 = 1.0
F#8#16#3 = 1.0
F#8#17#12 = 1.0
F#18#8#2 = 1.0
F#8#19#10 = 0.9999999999999999
F#20#8#8 = 1.0
F#21#8#13 = 1.0
F#8#22#14 = 1.0
F#10#9#9 = 1.0
F#11#9#1 = 1.0
F#9#12#2 = 1.0
F#13#9#20 = 1.0
F#14#9#3 = 1.0
F#15#9#16 = 1.0
F#9#16#10 = 1.0
F#9#17#4 = 1.0
F#9#18#14 = 1.0
F#19#9#5 = 1.0
F#20#9#18 = 1.0
F#9#21#6 = 1.000000000000001
F#22#9#11 = 1.000000000000001
F#11#10#18 = 1.0
F#10#12#11 = 1.000000000000001
F#10#13#13 = 1.0
F#14#10#12 = 1.0
F#10#15#15 = 1.000000000000001
F#16#10#4 = 1.0
F#10#17#19 = 1.0
F#18#10#8 = 1.0
F#10#19#17 = 1.0
F#20#10#20 = 1.0
F#21#10#1 = 1.0
F#10#22#21 = 1.0
F#11#12#3 = 1.0
F#13#11#2 = 1.0
F#11#14#8 = 1.0
F#11#15#20 = 1.0
F#11#16#16 = 1.0
F#11#17#10 = 1.000000000000001
F#18#11#15 = 1.000000000000001
F#19#11#11 = 1.0
F#20#11#5 = 1.0
F#11#21#12 = 1.000000000000001
F#22#11#7 = 1.0
F#12#13#1 = 1.0
F#14#12#7 = 1.0
F#15#12#21 = 1.0
F#12#16#18 = 1.0
F#12#17#8 = 1.0
F#18#12#19 = 0.9999999999999989
F#19#12#9 = 1.0
F#12#20#4 = 1.0
F#12#21#14 = 1.0
F#22#12#13 = 1.000000000000001
F#14#13#5 = 1.0
F#15#13#19 = 1.0
F#13#16#14 = 1.0
F#17#13#9 = 1.0
F#13#18#18 = 1.0
F#13#19#4 = 1.0
F#13#20#6 = 1.0
F#21#13#11 = 0.999999999999988
F#13#22#8 = 1.0
F#15#14#6 = 1.0
F#16#14#21 = 1.0
F#14#17#14 = 1.0
F#14#18#20 = 1.0
F#19#14#13 = 1.0
F#14#20#9 = 1.0
F#14#21#16 = 1.0
F#22#14#15 = 1.0
F#15#16#12 = 1.0
F#17#15#5 = 1.0
F#18#15#17 = 1.000000000000001
F#19#15#7 = 1.0
F#15#20#2 = 1.0
F#15#21#10 = 1.0
F#22#15#3 = 1.0
F#17#16#1 = 1.0
F#16#18#13 = 1.0
F#16#19#2 = 1.0
F#16#20#17 = 1.0
F#21#16#5 = 1.0
F#16#22#19 = 1.0
F#18#17#6 = 1.0
F#17#19#15 = 1.0
F#17#20#11 = 1.0
F#17#21#18 = 1.0
F#22#17#17 = 1.0
F#19#18#1 = 1.0
F#20#18#3 = 1.0
F#21#18#7 = 1.0
F#18#22#4 = 1.0
F#20#19#12 = 1.0
F#21#19#21 = 1.0
F#19#22#16 = 1.0
F#21#20#15 = 1.0
F#20#22#10 = 1.0
F#22#21#20 = 1.0
VC#1#2 = 4.0
VC#1#3 = 1.0
VC#2#2 = 4.0
VC#2#3 = 1.0
VC#3#2 = 4.0
VC#3#3 = 1.0
VC#4#2 = 4.0
VC#4#3 = 1.0
VC#5#2 = 4.0
VC#5#3 = 1.0
VC#6#2 = 3.0
VC#6#3 = 1.0
VC#7#2 = 3.0
VC#7#3 = 1.0
VC#8#2 = 3.0
VC#8#3 = 1.0
VC#9#2 = 4.0
VC#9#3 = 1.0
VC#10#2 = 4.0
VC#10#3 = 1.0
VC#11#2 = 3.000000000000001
VC#11#3 = 1.0
VC#12#2 = 3.999999999999999
VC#12#3 = 1.0
VC#13#2 = 3.0
VC#13#3 = 1.0
VC#14#1 = 6.0
VC#14#3 = 1.0
VC#15#1 = 5.999999999999989
VC#15#3 = 1.0
VC#16#1 = 7.0
VC#16#3 = 1.0
VC#17#1 = 7.000000000000001
VC#17#3 = 1.0
VC#18#1 = 6.0
VC#18#3 = 1.0
VC#19#1 = 6.0
VC#19#3 = 1.0
VC#20#1 = 6.0
VC#20#3 = 1.0
VC#21#1 = 6.0
VC#21#2 = 3.0
VC#22#1 = 7.0
VC#22#2 = 4.0
LC#1#2 = 3.0
LC#1#3 = 1.0
LC#2#2 = 3.0
LC#2#3 = 1.0
LC#3#2 = 3.0
LC#3#3 = 1.0
LC#4#2 = 3.0
LC#4#3 = 1.0
LC#5#2 = 3.0
LC#5#3 = 1.0
LC#6#2 = 4.0
LC#6#3 = 1.0
LC#7#2 = 4.0
LC#7#3 = 1.0
LC#8#2 = 4.0
LC#8#3 = 1.0
LC#9#2 = 3.0
LC#9#3 = 1.0
LC#10#2 = 3.0
LC#10#3 = 1.0
LC#11#2 = 3.999999999999999
LC#11#3 = 1.0
LC#12#2 = 3.000000000000001
LC#12#3 = 1.0
LC#13#2 = 4.0
LC#13#3 = 1.0
LC#14#1 = 7.0
LC#14#3 = 1.0
LC#15#1 = 7.000000000000011
LC#15#3 = 1.0
LC#16#1 = 6.0
LC#16#3 = 1.0
LC#17#1 = 5.999999999999999
LC#17#3 = 1.0
LC#18#1 = 7.0
LC#18#3 = 1.0
LC#19#1 = 7.0
LC#19#3 = 1.0
LC#20#1 = 7.0
LC#20#3 = 1.0
LC#21#1 = 7.0
LC#21#2 = 4.0
LC#22#1 = 6.0
LC#22#2 = 3.0
